NAME          DCAP_2_4_3_500
ROWS
 N  OBJ
 L  CON1
 L  CON2
 L  CON3
 L  CON4
 L  CON5
 L  CON6
 L  CON7
 L  CON8
 L  CON9
 L  CON10
 L  CON11
 L  CON12
 E  CON13
 E  CON14
 E  CON15
 E  CON16
 E  CON17
 E  CON18
 E  CON19
 E  CON20
 E  CON21
 E  CON22
 E  CON23
 E  CON24
COLUMNS
    x[1,1]    OBJ       6.180167      CON1      1.000000    
    x[1,1]    CON7      -1.000000     CON8      -1.000000   
    x[1,1]    CON9      -1.000000   
    x[1,2]    OBJ       6.563535      CON2      1.000000    
    x[1,2]    CON8      -1.000000     CON9      -1.000000   
    x[1,3]    OBJ       7.443064      CON3      1.000000    
    x[1,3]    CON9      -1.000000   
    x[2,1]    OBJ       6.732585      CON4      1.000000    
    x[2,1]    CON10     -1.000000     CON11     -1.000000   
    x[2,1]    CON12     -1.000000   
    x[2,2]    OBJ       5.039546      CON5      1.000000    
    x[2,2]    CON11     -1.000000     CON12     -1.000000   
    x[2,3]    OBJ       6.054841      CON6      1.000000    
    x[2,3]    CON12     -1.000000   
    MARKER    'MARKER'                'INTORG'
    u[1,1]    OBJ       48.076654     CON1      -1.000000   
    u[1,2]    OBJ       20.066487     CON2      -1.000000   
    u[1,3]    OBJ       32.230043     CON3      -1.000000   
    u[2,1]    OBJ       49.996186     CON4      -1.000000   
    u[2,2]    OBJ       49.466655     CON5      -1.000000   
    u[2,3]    OBJ       27.484319     CON6      -1.000000   
    y[1,1,1]  OBJ       6.859597      CON7      0.807414    
    y[1,1,1]  CON13     1.000000    
    y[1,1,2]  OBJ       9.008572      CON8      1.442000    
    y[1,1,2]  CON14     1.000000    
    y[1,1,3]  OBJ       6.645099      CON9      0.660542    
    y[1,1,3]  CON15     1.000000    
    y[1,2,1]  OBJ       6.099877      CON7      0.635724    
    y[1,2,1]  CON16     1.000000    
    y[1,2,2]  OBJ       8.112980      CON8      1.104157    
    y[1,2,2]  CON17     1.000000    
    y[1,2,3]  OBJ       5.562363      CON9      0.792585    
    y[1,2,3]  CON18     1.000000    
    y[1,3,1]  OBJ       9.881569      CON7      1.306244    
    y[1,3,1]  CON19     1.000000    
    y[1,3,2]  OBJ       8.402587      CON8      0.951015    
    y[1,3,2]  CON20     1.000000    
    y[1,3,3]  OBJ       9.650661      CON9      0.951450    
    y[1,3,3]  CON21     1.000000    
    y[1,4,1]  OBJ       7.603958      CON7      1.309013    
    y[1,4,1]  CON22     1.000000    
    y[1,4,2]  OBJ       9.311377      CON8      1.450865    
    y[1,4,2]  CON23     1.000000    
    y[1,4,3]  OBJ       5.033088      CON9      0.517013    
    y[1,4,3]  CON24     1.000000    
    y[2,1,1]  OBJ       6.016645      CON10     0.807414    
    y[2,1,1]  CON13     1.000000    
    y[2,1,2]  OBJ       5.339356      CON11     1.442000    
    y[2,1,2]  CON14     1.000000    
    y[2,1,3]  OBJ       8.894266      CON12     0.660542    
    y[2,1,3]  CON15     1.000000    
    y[2,2,1]  OBJ       7.124507      CON10     0.635724    
    y[2,2,1]  CON16     1.000000    
    y[2,2,2]  OBJ       5.783924      CON11     1.104157    
    y[2,2,2]  CON17     1.000000    
    y[2,2,3]  OBJ       9.717609      CON12     0.792585    
    y[2,2,3]  CON18     1.000000    
    y[2,3,1]  OBJ       7.225362      CON10     1.306244    
    y[2,3,1]  CON19     1.000000    
    y[2,3,2]  OBJ       6.407035      CON11     0.951015    
    y[2,3,2]  CON20     1.000000    
    y[2,3,3]  OBJ       7.753289      CON12     0.951450    
    y[2,3,3]  CON21     1.000000    
    y[2,4,1]  OBJ       8.872059      CON10     1.309013    
    y[2,4,1]  CON22     1.000000    
    y[2,4,2]  OBJ       9.712034      CON11     1.450865    
    y[2,4,2]  CON23     1.000000    
    y[2,4,3]  OBJ       5.337323      CON12     0.517013    
    y[2,4,3]  CON24     1.000000    
    z[1,1]    OBJ       932.099957    CON13     1.000000    
    z[1,2]    OBJ       759.270613    CON14     1.000000    
    z[1,3]    OBJ       914.442418    CON15     1.000000    
    z[2,1]    OBJ       654.956042    CON16     1.000000    
    z[2,2]    OBJ       601.691818    CON17     1.000000    
    z[2,3]    OBJ       750.058074    CON18     1.000000    
    z[3,1]    OBJ       518.170961    CON19     1.000000    
    z[3,2]    OBJ       625.755726    CON20     1.000000    
    z[3,3]    OBJ       842.783310    CON21     1.000000    
    z[4,1]    OBJ       599.720309    CON22     1.000000    
    z[4,2]    OBJ       778.374673    CON23     1.000000    
    z[4,3]    OBJ       626.967140    CON24     1.000000    
    MARKER    'MARKER'                 'INTEND'
RHS
    RHS       CON1      -0.000000     CON2      -0.000000   
    RHS       CON3      -0.000000     CON4      -0.000000   
    RHS       CON5      -0.000000     CON6      -0.000000   
    RHS       CON7      -0.000000     CON8      -0.000000   
    RHS       CON9      -0.000000     CON10     -0.000000   
    RHS       CON11     -0.000000     CON12     -0.000000   
    RHS       CON13     1.000000      CON14     1.000000    
    RHS       CON15     1.000000      CON16     1.000000    
    RHS       CON17     1.000000      CON18     1.000000    
    RHS       CON19     1.000000      CON20     1.000000    
    RHS       CON21     1.000000      CON22     1.000000    
    RHS       CON23     1.000000      CON24     1.000000    
BOUNDS
 BV BOUND     u[1,1]  
 BV BOUND     u[1,2]  
 BV BOUND     u[1,3]  
 BV BOUND     u[2,1]  
 BV BOUND     u[2,2]  
 BV BOUND     u[2,3]  
 BV BOUND     y[1,1,1]
 BV BOUND     y[1,1,2]
 BV BOUND     y[1,1,3]
 BV BOUND     y[1,2,1]
 BV BOUND     y[1,2,2]
 BV BOUND     y[1,2,3]
 BV BOUND     y[1,3,1]
 BV BOUND     y[1,3,2]
 BV BOUND     y[1,3,3]
 BV BOUND     y[1,4,1]
 BV BOUND     y[1,4,2]
 BV BOUND     y[1,4,3]
 BV BOUND     y[2,1,1]
 BV BOUND     y[2,1,2]
 BV BOUND     y[2,1,3]
 BV BOUND     y[2,2,1]
 BV BOUND     y[2,2,2]
 BV BOUND     y[2,2,3]
 BV BOUND     y[2,3,1]
 BV BOUND     y[2,3,2]
 BV BOUND     y[2,3,3]
 BV BOUND     y[2,4,1]
 BV BOUND     y[2,4,2]
 BV BOUND     y[2,4,3]
 BV BOUND     z[1,1]  
 BV BOUND     z[1,2]  
 BV BOUND     z[1,3]  
 BV BOUND     z[2,1]  
 BV BOUND     z[2,2]  
 BV BOUND     z[2,3]  
 BV BOUND     z[3,1]  
 BV BOUND     z[3,2]  
 BV BOUND     z[3,3]  
 BV BOUND     z[4,1]  
 BV BOUND     z[4,2]  
 BV BOUND     z[4,3]  
ENDATA
